toybox/dimacs/toybox-2019-09-04_15-59-23.dimacs
c 1 CONFIG_HELP
c 2 CONFIG_DHCPD
c 3 CONFIG_CHCON
c 4 CONFIG_TOYBOX_LIBCRYPTO
c 5 CONFIG_TCPSVD
c 6 CONFIG_TIME
c 7 CONFIG_W
c 8 CONFIG_KLOGD_SOURCE_RING_BUFFER
c 9 CONFIG_SULOGIN
c 10 CONFIG_ID_Z
c 11 CONFIG_FGREP
c 12 CONFIG_SENDEVENT
c 13 CONFIG_MDEV_CONF
c 14 CONFIG_TOYBOX_PRLIMIT
c 15 CONFIG_NBD_CLIENT
c 16 CONFIG_LOAD_POLICY
c 17 CONFIG_MKDIR_Z
c 18 CONFIG_UNSHARE
c 19 CONFIG_TOYBOX_UID_SYS
c 20 CONFIG_EGREP
c 21 CONFIG_ID
c 22 CONFIG_SETENFORCE
c 23 CONFIG_RESTORECON
c 24 CONFIG_HELP_EXTRAS
c 25 CONFIG_BOOTCHARTD
c 26 CONFIG_LOGIN
c 27 CONFIG_KILL
c 28 CONFIG_ULIMIT
c 29 CONFIG_FSFREEZE
c 30 CONFIG_GREP
c 31 CONFIG_MKNOD_Z
c 32 CONFIG_TOYBOX_ICONV
c 33 CONFIG_LOG
c 34 CONFIG_MKE2FS_EXTENDED
c 35 CONFIG_WHO
c 36 CONFIG_TOYBOX_FIFREEZE
c 37 CONFIG_CP_PRESERVE
c 38 CONFIG_CP
c 39 CONFIG_TOYBOX_MUSL_NOMMU_IS_BROKEN
c 40 CONFIG_RUNCON
c 41 CONFIG_LSPCI_TEXT
c 42 CONFIG_TOYBOX_LSM_NONE
c 43 CONFIG_MKE2FS_GEN
c 44 CONFIG_CAT
c 45 CONFIG_TOYBOX_SHADOW
c 46 CONFIG_SHA256SUM
c 47 CONFIG_KLOGD
c 48 CONFIG_TOYBOX_SELINUX
c 49 CONFIG_MKE2FS
c 50 CONFIG_LSPCI
c 51 CONFIG_OPENVT
c 52 CONFIG_ICONV
c 53 CONFIG_GETENFORCE
c 54 CONFIG_TOYBOX_FORK
c 55 CONFIG_MKFIFO_Z
c 56 CONFIG_TOYBOX_FLOAT
c 57 CONFIG_MKNOD
c 58 CONFIG_TOYBOX_HELP
c 59 CONFIG_PASSWD
c 60 CONFIG_FALLOCATE
c 61 CONFIG_SHA224SUM
c 62 CONFIG_TOYBOX_UID_USR
c 63 CONFIG_TOYBOX_CONTAINER
c 64 CONFIG_NETCAT_LISTEN
c 65 CONFIG_MKE2FS_LABEL
c 66 CONFIG_NSENTER
c 67 CONFIG_SEQ
c 68 CONFIG_SORT_FLOAT
c 69 CONFIG_SU
c 70 CONFIG_CD
c 71 CONFIG_MKPASSWD
c 72 CONFIG_TOYBOX_ANDROID_SCHEDPOLICY
c 73 CONFIG_PASSWD_SAD
c 74 CONFIG_EXIT
c 75 CONFIG_NETCAT
c 76 CONFIG_SHA384SUM
c 77 CONFIG_UPTIME
c 78 CONFIG_CRONTAB
c 79 CONFIG_MKDIR
c 80 CONFIG_MKFIFO
c 81 CONFIG_TOYBOX_ON_ANDROID
c 82 CONFIG_TOYBOX_SMACK
c 83 CONFIG_TOYBOX
c 84 CONFIG_MKE2FS_JOURNAL
c 85 CONFIG_TOYBOX_UTMPX
c 86 CONFIG_SHA512SUM
c 87 CONFIG_CAT_V
c 88 CONFIG_DEBUG_DHCP
c 89 CONFIG_TOYBOX_FALLOCATE
c 90 CONFIG_TOYBOX_GETRANDOM
c 91 CONFIG_KILLALL5
c 92 CONFIG_MDEV
c 93 CONFIG_TOYBOX_HELP_DASHDASH
c 94 __Root__
p cnf 94 184
94 0
94 -54 0
94 -78 0
94 -10 0
94 -21 0
94 -42 0
94 -11 0
94 -30 0
94 -35 0
94 -85 0
94 -48 0
94 -82 0
94 -56 0
94 -6 0
94 -87 0
94 -44 0
94 -24 0
94 -1 0
94 -89 0
94 -60 0
94 -14 0
94 -45 0
94 -69 0
94 -31 0
94 -57 0
94 -27 0
94 -91 0
94 -62 0
94 -58 0
94 -34 0
94 -49 0
94 -81 0
94 -33 0
94 -17 0
94 -59 0
94 -83 0
94 -26 0
94 -28 0
94 -47 0
94 -8 0
94 -52 0
94 -32 0
94 -20 0
94 -16 0
94 -70 0
94 -72 0
94 -90 0
94 -63 0
94 -46 0
94 -4 0
94 -9 0
94 -61 0
94 -73 0
94 -86 0
94 -80 0
94 -55 0
94 -12 0
94 -93 0
94 -36 0
94 -43 0
94 -3 0
94 -53 0
94 -40 0
94 -13 0
94 -92 0
94 -23 0
94 -7 0
94 -38 0
94 -37 0
94 -71 0
94 -68 0
94 -41 0
94 -50 0
94 -25 0
94 -66 0
94 -51 0
94 -15 0
94 -76 0
94 -67 0
94 -77 0
94 -75 0
94 -64 0
94 -5 0
94 -84 0
94 -19 0
94 -39 0
94 -18 0
94 -2 0
94 -88 0
94 -79 0
94 -29 0
94 -74 0
94 -22 0
94 -65 0
54 -78 0
10 -21 42 0
11 -30 0
-35 85 0
48 42 82 0
56 -6 0
-87 44 0
-24 1 0
89 -60 0
14 0
45 -69 0
31 -57 42 0
27 -91 0
62 0
58 -1 0
-34 49 0
81 -33 0
-17 -42 0
85 0
45 -59 0
-81 0
83 -24 1 0
45 -26 0
14 -28 0
-48 -42 0
47 -8 0
-52 32 0
20 -30 0
-16 48 0
-70 0
-72 0
90 0
-20 30 0
63 0
-46 4 0
45 -9 0
-61 4 0
59 -73 0
-86 4 0
80 -55 0
-42 -82 0
83 -24 0
-12 81 0
58 -93 0
36 0
49 -43 0
48 -3 0
48 -53 0
-40 48 0
-13 92 0
-10 21 0
48 -23 0
-7 85 0
38 -37 0
-31 -42 0
-71 -81 0
56 -68 0
89 0
45 0
-48 -82 0
-41 50 0
54 -25 0
-66 63 0
-51 54 0
54 -15 0
-76 4 0
-67 56 0
-77 85 0
75 -64 0
-55 -42 0
54 -5 0
49 -84 0
19 0
54 39 0
-11 30 0
-18 63 0
2 -88 0
-54 -39 0
83 0
79 -17 0
-56 68 0
32 0
-80 55 42 0
-29 36 0
-10 -42 0
-74 0
-79 17 42 0
48 -22 0
49 -65 0
-31 57 0
